NAME : XML50_2173_15
COMMENT : Generated as the XML100 dataset from the CVRPLIB
TYPE : CVRP
DIMENSION : 51
EDGE_WEIGHT_TYPE : EUC_2D
CAPACITY : 135
NODE_COORD_SECTION
1    500  500 
2    93   529 
3    14   773 
4    671  210 
5    513  176 
6    712  800 
7    405  951 
8    522  743 
9    320  498 
10   673  411 
11   774  207 
12   123  972 
13   913  792 
14   566  962 
15   422  704 
16   218  712 
17   424  280 
18   74   36  
19   245  537 
20   189  331 
21   172  626 
22   156  459 
23   760  592 
24   993  55  
25   464  877 
26   883  180 
27   554  514 
28   318  707 
29   156  77  
30   186  865 
31   516  536 
32   19   453 
33   858  440 
34   462  211 
35   233  803 
36   343  605 
37   774  422 
38   547  926 
39   71   91  
40   260  927 
41   933  174 
42   997  543 
43   446  544 
44   181  441 
45   708  144 
46   371  50  
47   250  233 
48   923  72  
49   589  898 
50   970  311 
51   956  807 
DEMAND_SECTION
1    0   
2    2   
3    3   
4    3   
5    3   
6    68  
7    5   
8    8   
9    7   
10   6   
11   7   
12   6   
13   8   
14   3   
15   10  
16   3   
17   6   
18   2   
19   5   
20   2   
21   10  
22   2   
23   5   
24   91  
25   4   
26   3   
27   4   
28   10  
29   8   
30   7   
31   2   
32   1   
33   90  
34   4   
35   6   
36   3   
37   2   
38   66  
39   7   
40   70  
41   4   
42   1   
43   2   
44   2   
45   6   
46   9   
47   10  
48   5   
49   6   
50   3   
51   8   
DEPOT_SECTION
1
-1
EOF
